webassembly/ejemplos_dzn/folder12_json_54.dzn
TERM = { '.', 's(5)', 'in_10', 'in_1', 'in_6', 'in_9', 'in_0', 's(4)', 'in_3', 's(1)', 'in_11', 's(2)', 'in_2', 'in_8', 's(0)', 's(3)', 'local_1', 'in_4', 'in_7', 'in_5'};
null = '.';
s = 12;
n = 17;
ndeps = 9;
max_registers_sz = 4;
NR = 1;
registers = [|'local_1', 'in_5'|];
dependencies = [|'i32.load16_u_0', 'i32.store_2', |'i32.store_2', 'i32.load_3', |'i32.store_4', 'i32.load_6', |'i32.store_7', 'i32.store8_8', |'i32.store8_8', 'i32.load16_s_9', |'i32.store_10', 'i32.load16_u_11', |'i32.load_3', 'i32.store_4', |'i32.load_6', 'i32.store_7', |'i32.load16_s_9', 'i32.store_10'|];
GET_ENUM = { GET1, GET2, GET3, GET4, GET5};
SET_ENUM = { SET1, SET2, SET3, SET4, SET5};
TEE_ENUM = { TEE1, TEE2, TEE3, TEE4, TEE5};
N = 11;
OP = { 'i32.load16_u_0', 'i32.add_0', 'i32.store_2', 'i32.load_3', 'i32.store_4', 'i32.load_6', 'i32.store_7', 'i32.store8_8', 'i32.load16_s_9', 'i32.store_10', 'i32.load16_u_11' };
in_ops = [1, 2, 2, 1, 2, 1, 2, 2, 1, 2, 1 ];
out_ops = [1, 1, 0, 1, 0, 1, 0, 0, 1, 0, 1 ];
in1 = ['in_0', 's(0)', 's(1)', 'in_3', 's(2)', 'in_5', 's(3)', 'in_7', 'in_9', 's(4)', 'in_11' ];
in2 = ['.', 'in_1', 'in_2', '.', 'in_4', '.', 'in_6', 'in_8', '.', 'in_10', '.' ];
in3 = ['.', '.', '.', '.', '.', '.', '.', '.', '.', '.', '.' ];
out1 = ['s(0)', 's(1)', '.', 's(2)', '.', 's(3)', '.', '.', 's(4)', '.', 's(5)' ];
out2 = ['.', '.', '.', '.', '.', '.', '.', '.', '.', '.', '.' ];
out3 = ['.', '.', '.', '.', '.', '.', '.', '.', '.', '.', '.' ];
comm = [false, true, false, false, false, false, false, false, false, false, false ];
gas = [1, 1, 1, 1, 1, 1, 1, 1, 1, 1, 1 ];
sz = [1, 1, 1, 1, 1, 1, 1, 1, 1, 1, 1 ];
stor = [false, false, true, false, true, false, true, true, false, true, false ];
lb = [ 1, 1, 1, 1, 1, 1, 1, 1, 1, 1, 1 ];
ub = [ 12, 12, 12, 12, 12, 12, 12, 12, 12, 12, 12 ];
startstack = [ 'in_0', 'in_1', 'in_2', 'in_3', 'in_4', 'in_5', 'in_6', 'in_7', 'in_8', 'in_9', 'in_10', 'in_11', null, null, null, null, null ];
endstack = [ 's(5)', null, null, null, null, null, null, null, null, null, null, null, null, null, null, null, null ];
