webassembly/ejemplos_results/folder12_json_54.txt
value = 12;
fgas = [1, 1, 1, 1, 1, 1, 1, 1, 1, 1, 1, 1];
fsize = [1, 1, 1, 1, 1, 1, 1, 1, 1, 1, 1, 1];
states = 
[|   in_0,  in_1,  in_2,  in_3,  in_4,  in_5,  in_6,  in_7,  in_8,  in_9, in_10, in_11, '.', '.', '.', '.', '.'
 | 's(0)',  in_1,  in_2,  in_3,  in_4,  in_5,  in_6,  in_7,  in_8,  in_9, in_10, in_11, '.', '.', '.', '.', '.'
 | 's(1)',  in_2,  in_3,  in_4,  in_5,  in_6,  in_7,  in_8,  in_9, in_10, in_11,   '.', '.', '.', '.', '.', '.'
 |   in_3,  in_4,  in_5,  in_6,  in_7,  in_8,  in_9, in_10, in_11,   '.',   '.',   '.', '.', '.', '.', '.', '.'
 | 's(2)',  in_4,  in_5,  in_6,  in_7,  in_8,  in_9, in_10, in_11,   '.',   '.',   '.', '.', '.', '.', '.', '.'
 |   in_5,  in_6,  in_7,  in_8,  in_9, in_10, in_11,   '.',   '.',   '.',   '.',   '.', '.', '.', '.', '.', '.'
 |   in_5,  in_6,  in_7,  in_8,  in_9, in_10, in_11,   '.',   '.',   '.',   '.',   '.', '.', '.', '.', '.', '.'
 | 's(3)',  in_6,  in_7,  in_8,  in_9, in_10, in_11,   '.',   '.',   '.',   '.',   '.', '.', '.', '.', '.', '.'
 |   in_7,  in_8,  in_9, in_10, in_11,   '.',   '.',   '.',   '.',   '.',   '.',   '.', '.', '.', '.', '.', '.'
 |   in_9, in_10, in_11,   '.',   '.',   '.',   '.',   '.',   '.',   '.',   '.',   '.', '.', '.', '.', '.', '.'
 | 's(4)', in_10, in_11,   '.',   '.',   '.',   '.',   '.',   '.',   '.',   '.',   '.', '.', '.', '.', '.', '.'
 |  in_11,   '.',   '.',   '.',   '.',   '.',   '.',   '.',   '.',   '.',   '.',   '.', '.', '.', '.', '.', '.'
 | 's(5)',   '.',   '.',   '.',   '.',   '.',   '.',   '.',   '.',   '.',   '.',   '.', '.', '.', '.', '.', '.'
 |];
register_states = 
[| local_1, '.', '.', '.', '.'
 | local_1, '.', '.', '.', '.'
 | local_1, '.', '.', '.', '.'
 | local_1, '.', '.', '.', '.'
 | local_1, '.', '.', '.', '.'
 | local_1, '.', '.', '.', '.'
 |    in_5, '.', '.', '.', '.'
 |    in_5, '.', '.', '.', '.'
 |    in_5, '.', '.', '.', '.'
 |    in_5, '.', '.', '.', '.'
 |    in_5, '.', '.', '.', '.'
 |    in_5, '.', '.', '.', '.'
 |    in_5, '.', '.', '.', '.'
 |];
program = [O('i32.load16_u_0'), O('i32.add_0'), O('i32.store_2'), O('i32.load_3'), O('i32.store_4'), TEE(TEE1), O('i32.load_6'), O('i32.store_7'), O('i32.store8_8'), O('i32.load16_s_9'), O('i32.store_10'), O('i32.load16_u_11')];
% time elapsed: 0.71 s
----------
==========
% time elapsed: 0.75 s
% [value > 11]
